
  32    4
  10   10   10   10

   0   0   0   0   0   2 2 3 
   1   1   1   0   1   3 9 5 4 
   9   0   5   1   2   2 9 4 
   3   4   4   2   0   1 6 
   5   0   3   4   5   1 6 
   2   6   4   4   0   1 7 
   7   5   2   4   0   2 12 8 
  10   5   0   3   5   1 10 
  10   4   4   0   3   1 10 
   3   6   7   2   0   2 15 11 
   2   5   5   7   0   3 16 14 13 
   1   4   7   4   0   3 15 14 13 
   7   3   5   0   2   3 19 18 17 
   7   2   4   0   5   2 21 17 
  10   6   6   0   3   2 21 17 
   3   3   0   2   2   2 20 18 
   8   4   0   7   5   3 23 22 20 
  10   0   3   3   3   2 25 21 
   9   0   3   5   4   2 22 20 
   8   5   0   3   4   3 28 25 24 
   8   0   3   4   4   1 22 
   3   5   0   7   4   2 28 24 
  10   3   3   3   0   2 28 24 
   2   4   2   0   3   2 31 26 
   7   3   0   2   4   1 26 
   1   4   0   4   4   2 29 27 
  10   3   0   6   6   1 30 
   7   2   0   4   7   1 29 
   7   4   6   0   7   1 32
   5   0   3   5   4   1 32
   5   5   0   6   5   1 32
   0   0   0   0   0   0 
